(set-logic QF_S)
(declare-fun var0 () String)
(assert (RegexIn var0 (RegexConcat (RegexStar (RegexPlus (Str2Reg "000"))) (RegexConcat (RegexStar (RegexStar (Str2Reg "111"))) (RegexConcat (RegexStar (RegexUnion (Str2Reg "22") (Str2Reg "3"))) (RegexConcat (RegexPlus (RegexUnion (Str2Reg "44") (Str2Reg "5"))) (RegexConcat (RegexUnion (RegexPlus (Str2Reg "666")) (RegexPlus (Str2Reg "7"))) (RegexConcat (RegexStar (RegexUnion (Str2Reg "888") (Str2Reg "999"))) (RegexConcat (RegexUnion (RegexStar (Str2Reg "aa")) (RegexStar (Str2Reg "bbb"))) (RegexConcat (RegexStar (RegexStar (Str2Reg "cc"))) (RegexConcat (RegexPlus (RegexUnion (Str2Reg "d") (Str2Reg "ee"))) (RegexConcat (RegexPlus (RegexUnion (Str2Reg "f") (Str2Reg "gg"))) (RegexConcat (RegexStar (RegexUnion (Str2Reg "hhh") (Str2Reg "ii"))) (RegexConcat (RegexStar (RegexUnion (Str2Reg "jj") (Str2Reg "kk"))) (RegexConcat (RegexUnion (RegexPlus (Str2Reg "l")) (RegexPlus (Str2Reg "m"))) (RegexConcat (RegexPlus (RegexUnion (Str2Reg "n") (Str2Reg "ooo"))) (RegexConcat (RegexStar (RegexUnion (Str2Reg "pp") (Str2Reg "qq"))) (RegexConcat (RegexStar (RegexUnion (Str2Reg "rrr") (Str2Reg "s"))) (RegexConcat (RegexStar (RegexPlus (Str2Reg "ttt"))) (RegexConcat (RegexUnion (RegexPlus (Str2Reg "uuu")) (RegexPlus (Str2Reg "v"))) (RegexConcat (RegexPlus (RegexPlus (Str2Reg "ww"))) (RegexConcat (RegexStar (RegexPlus (Str2Reg "xxx"))) (RegexConcat (RegexStar (RegexPlus (Str2Reg "yyy"))) (RegexConcat (RegexStar (RegexStar (Str2Reg "zzz"))) (RegexConcat (RegexUnion (RegexStar (Str2Reg "A")) (RegexStar (Str2Reg "BBB"))) (RegexConcat (RegexUnion (RegexPlus (Str2Reg "CC")) (RegexPlus (Str2Reg "DDD"))) (RegexConcat (RegexUnion (RegexUnion (Str2Reg "EEE") (Str2Reg "F")) (RegexUnion (Str2Reg "G") (Str2Reg "H"))) (RegexConcat (RegexPlus (RegexStar (Str2Reg "III"))) (RegexConcat (RegexUnion (RegexUnion (Str2Reg "J") (Str2Reg "K")) (RegexUnion (Str2Reg "LLL") (Str2Reg "MM"))) (RegexConcat (RegexPlus (RegexUnion (Str2Reg "NN") (Str2Reg "OO"))) (RegexConcat (RegexUnion (RegexPlus (Str2Reg "PP")) (RegexPlus (Str2Reg "QQ"))) (RegexConcat (RegexPlus (RegexPlus (Str2Reg "RR"))) (RegexConcat (RegexStar (RegexUnion (Str2Reg "SS") (Str2Reg "TTT"))) (RegexConcat (RegexStar (RegexStar (Str2Reg "UU"))) (RegexConcat (RegexPlus (RegexStar (Str2Reg "VVV"))) (RegexConcat (RegexStar (RegexStar (Str2Reg "W"))) (RegexPlus (RegexPlus (Str2Reg "X")))))))))))))))))))))))))))))))))))))))
(check-sat)